c Output_time 26.03.2020 18:13:11_+0100 1585242791789575428
c ** Program information **
c program_name                          "QBRG_debug"
c version                               "0.3.20"
c date                                  "25.3.2020"
c gid_id                                "673970833836058123f633335630c185360d632e"
c author                                "Oliver Kullmann"
c url                                   "https://github.com/OKullmann/oklibrary/blob/master/Satisfiability/Transformers/Generators/Random/QBRG.cpp"
c ** Machine information **
c machine_name                          "chyna-Lenovo-G50-70"
c bogomips                              3791.08
c ** Compilation information **
c compiler_version                      "g++ 7.5.0"
c compilation_date                      "Mar_26_2020 11:16:30"
c compilation_options                   "--std=c++17 -pedantic -fmax-errors=5 -Wall -Wextra -g -D_GLIBCXX_DEBUG"
c NDEBUG                                0
c OPTIMIZE                              0
c ** Parameters **
c command-line                          "./QBRG_debug" "e40 a40 40" "229*1,1|2-2,1|3-3,1" "" "1,t" ""
c output                                "QuBlRaGe_120_229_1585242791789414551.qdimacs"
c options                               "filtered,renamed"
c num_quantifier_blocks                 3
c  quantifier_blocks                    1:e1-40 2:a41-80 3:e81-120
c num_clause-blocks                     1
c  clause-blocks                        229 * {1-40,1,1/2} | {41-80,1,1/2} | {81-120,1,1/2}
c num_e-seeds                           30+2=32
c  e-seeds                              1 0 1 0 4 120 2 40 1 40 0 40 1 229 3 1 1 1 1 2 2 2 1 1 2 3 3 1 1 2 1 1585242791789414044
p cnf 120 229
e 1 2 3 4 5 6 7 8 9 10 11 12 13 14 15 16 17 18 19 20 21 22 23 24 25 26 27 28 29 30 31 32 33 34 35 36 37 38 39 40 0
a 41 42 43 44 45 46 47 48 49 50 51 52 53 54 55 56 57 58 59 60 61 62 63 64 65 66 67 68 69 70 71 72 73 74 75 76 77 78 79 80 0
e 81 82 83 84 85 86 87 88 89 90 91 92 93 94 95 96 97 98 99 100 101 102 103 104 105 106 107 108 109 110 111 112 113 114 115 116 117 118 119 120 0
-12 56 -81 0
1 -68 -81 0
34 -68 -81 0
-12 76 -81 0
24 45 81 0
-24 -48 81 0
-19 61 81 0
-22 -79 81 0
-17 69 -82 0
-22 -52 82 0
-37 59 82 0
-38 -68 82 0
-29 71 82 0
28 67 -83 0
-27 60 83 0
-10 53 -84 0
-23 -48 84 0
-37 48 84 0
9 61 84 0
-26 73 84 0
29 -49 -85 0
-7 56 85 0
11 -65 85 0
-32 72 85 0
40 -76 85 0
21 45 -86 0
-27 66 -86 0
34 53 86 0
29 61 86 0
23 -64 86 0
33 -64 86 0
-23 67 86 0
-22 -77 -87 0
16 -43 87 0
-37 65 87 0
-1 -77 87 0
-4 79 87 0
24 -42 -88 0
-11 -44 -88 0
30 -46 -88 0
9 -57 -88 0
5 -42 88 0
34 -48 88 0
-20 -59 88 0
1 -67 88 0
-13 74 88 0
25 52 -89 0
-37 63 -89 0
-28 -52 89 0
-22 -55 89 0
7 -59 89 0
-28 63 89 0
-14 -68 89 0
-36 46 -90 0
-40 -51 -90 0
24 75 -90 0
-5 -48 90 0
24 -48 90 0
15 53 90 0
32 53 90 0
24 67 90 0
-36 67 90 0
-1 -71 90 0
28 57 -91 0
-19 -54 91 0
13 -55 91 0
-31 69 91 0
-1 -78 91 0
-37 78 91 0
-3 -45 -92 0
20 45 -92 0
-40 58 -92 0
-9 -53 92 0
-4 55 92 0
28 65 92 0
40 -64 -93 0
-11 -47 93 0
14 -50 93 0
-23 57 93 0
-37 61 93 0
-32 -64 93 0
-25 46 -94 0
7 58 -94 0
32 -65 -94 0
4 42 94 0
33 -76 94 0
24 50 -95 0
-39 -67 -95 0
15 -42 95 0
-30 -58 95 0
37 -78 95 0
32 50 -96 0
13 53 -96 0
-21 59 -96 0
-3 72 -96 0
-27 66 96 0
-39 -69 96 0
35 75 96 0
28 -50 -97 0
36 -65 -97 0
23 65 97 0
-18 78 97 0
9 -46 -98 0
34 -48 -98 0
5 57 -98 0
27 62 -98 0
31 -68 -98 0
33 -47 98 0
-1 54 98 0
20 57 -99 0
19 43 99 0
9 -53 99 0
-37 60 99 0
-38 -61 99 0
-2 51 -100 0
40 -59 -100 0
-2 -71 -100 0
-13 79 -100 0
-6 54 100 0
17 72 100 0
-35 -54 -101 0
-28 -64 -101 0
-24 65 -101 0
-34 -69 -101 0
-32 78 -101 0
-20 54 101 0
-2 78 101 0
8 -77 -102 0
-30 -78 -102 0
-12 -80 -102 0
9 42 102 0
21 -72 102 0
-21 46 -103 0
-29 60 -103 0
20 -76 -103 0
-24 64 103 0
-17 -66 103 0
25 73 103 0
-12 -47 -104 0
20 78 104 0
-4 -42 -105 0
-11 45 -105 0
-36 -68 -105 0
-25 54 105 0
-18 -48 -106 0
-9 48 -106 0
6 52 -106 0
-17 57 -106 0
1 69 -106 0
-15 -48 106 0
-4 67 106 0
-38 71 106 0
37 77 -107 0
35 42 107 0
26 49 107 0
2 51 107 0
12 -69 107 0
39 63 -108 0
-17 -68 -108 0
15 66 108 0
-6 -76 108 0
-13 44 -109 0
7 50 -109 0
-28 -64 -109 0
-20 -65 -109 0
-39 -56 109 0
-37 -62 109 0
18 -78 109 0
-10 48 -110 0
-6 -53 -110 0
15 -62 -110 0
-13 64 -110 0
34 55 110 0
33 64 110 0
-5 -56 -111 0
35 59 -111 0
-9 -67 -111 0
2 -76 -111 0
-6 59 111 0
17 72 111 0
-6 77 111 0
28 -80 111 0
-7 -44 -112 0
17 -73 112 0
3 -80 112 0
10 70 -113 0
-35 -55 113 0
17 68 113 0
10 -79 113 0
26 -79 113 0
17 79 113 0
8 80 113 0
21 42 -114 0
-23 52 -114 0
16 72 -114 0
2 -55 114 0
-3 65 -115 0
18 68 -115 0
38 58 -116 0
4 -63 -116 0
-11 71 -116 0
34 76 -116 0
14 79 -116 0
7 48 116 0
13 -59 116 0
-5 65 116 0
-37 -67 116 0
-34 -53 -117 0
-12 -59 -117 0
28 -60 -117 0
12 -61 -117 0
-26 -70 -117 0
10 79 -117 0
21 -41 117 0
-3 58 117 0
-1 72 -118 0
-3 -76 -118 0
-22 65 118 0
-26 -68 118 0
12 43 -119 0
-30 -78 -119 0
4 45 119 0
18 48 119 0
-17 -47 -120 0
12 50 -120 0
-16 51 120 0
-29 61 120 0
34 73 120 0
-23 -78 120 0
